(set-logic QF_SLIA)
(declare-fun var0 () Int)
(declare-fun var1 () String)
(declare-fun var2 () String)
(declare-fun var3 () Int)
(declare-fun var4 () String)
(declare-fun var5 () String)
(declare-fun var6 () Int)
(declare-fun var7 () String)
(declare-fun var8 () Int)
(declare-fun var9 () String)
(declare-fun var10 () Int)
(declare-fun var11 () String)
(declare-fun var12 () Int)
(declare-fun var13 () String)
(declare-fun var14 () String)
(declare-fun var15 () String)
(declare-fun var16 () String)
(declare-fun var17 () String)
(declare-fun var18 () Int)
(declare-fun var19 () String)
(declare-fun var20 () String)
(assert (> var0 65))
(assert (<= (str.indexof var1 var2 var3) (str.indexof var4 var5 var6)))
(assert (str.in.re (str.at var7 var8) (re.inter (re.inter re.allchar re.allchar) (re.inter re.allchar re.allchar))))
(assert (= (str.substr (str.replace (str.at var7 176) (str.replace "LujecCbt$0Jk\\rS>$Ldl1AVYutnN>H0QX^<4V!RjO~cm+s!\\Uo@LKj1KIALYJNK=`Z'a/-_6{L1W:f_WnB3I3P6.>!qD<dI4&p4T^!O``eWW""BPkg]?q`F<H6)IVX|t1S1d-|+a6!*wEVZz@yTBUrf[H6OsL.1*1'-6Zb~A.6QYn[?Xy,Co""""7V""w>3*a}%K_-{2t{0[<:y}\\aR#^D[]$36vQ]Xq+(TYPQx8!o]G6b<t5C^=Wra1#IyfhLfw;4u'<!U9hX3EK<)qg7eB@hBV&Tz='y-5=S1+gkn9@8vCcC^N8!9Jwj?_<~&2[YNZZU'&}-;7$02@W~(ky4X@^" var5 var4) (str.at var9 var10)) (str.indexof (str.substr var11 var12 var0) (str.replace "dw@}rmaUdH6+\\amA8@!]yO+s8+MIE0{,stn+B6)I7&r`0Ws|}to%UE_BOJ`UL_NBN!'H8@1:,<)+f.^/5Y)/X%M/!""6leZ>n\\_%mw<Kud7\\<(Pn_([_*Z0X/[;%y9s]0}/3RiD$':#0*QOs82*pr:5U~p]kwp+[H$/p)@G[kXuv}~xjvKH&$I/=]dSY""S@wE\\.UX%u-JkZlq?3:IPx>v2QWgf$U)%rZ(kn1877\\X)gf&>)fyOBOG]-vjnZm%tT0TS^V?k3c6d->q&D8yVbxiZ8<koQA_rHx-YsdjrM)Cy`LO!m*IHQ`:nh+n=hD>Juft8_N7-]I" var7 var13) (str.len var4)) (str.indexof (str.replace var14 var15 var16) (str.++ (str.at var17 var18) (str.replace "clTn:t~2@zS'JUN^%H\\gi+skv^=m(Y&iy:u|mw.7!LA9ez~{b93VyGJ7R>2{a1Nj^g]r6/.NvxXuAv""ffy<<Oq-Jy|{O*-h@8YWrs.m2k.~XkAA>'PnFlP8D,Li%_LR;Ws<59#q({.A0'0(O~q,lk)/]""PV+}G-b5""}PJR7GhX/H;z1;;m&+4Ysg.V7%=\\L)[]EtqGaOB)MB./cJHnL[CpU1s:p=K5|zB" var19 var20)) (str.to.int (str.++ var14 var20)))) (str.at (str.++ var11 var4) (str.indexof var19 "Sc&U3R""|TLS\\HQDa^\\kdD`{+NN!~Q/m71V1)X$ii}C7/rJf-IH1]^bz5P8!;rQ.7RHBPc#=~B/N,#,~zA""2wf~NAPeOkKD'o?41RiQdI""7%\\zxRfPs2$S`Ey}NAc$7[;.b2A7X6&NFo}#V{&(ys%_Q""l.i<qb>)2Y.H""T=h&eX" var8))))
(assert (= (str.to.int "vo`(3vZDc$8<o[Po=d((Uu-<}*iW'lM-x$\\`U4n4xRIid0\\of\\stK[$o0F}bTj#f-UIkBBNw@v&#ittFLNdugGRK3<,z}FUym+DZ7c;>I22l%JH[BpoSG%o_mD\\zdNs>\\+`n%)2tBlv!o6(T\\H$c3@[,1ky1`>KB)lm503e[Vovp]+[o\\eO""jm\\}@G53k*,3Q_e[8j}A;G>qWmdNwLg6xT?]?C^s_Z\\L]$QH\\CfnH/HGn3=Oj4H#T?qQeeMRaCi3*V4Fjgwy<p^2M+)oQ6GX[s;xHO5@^@6{$ama.G|k'y9xxHN9vfPn\\n;8dsM#a}aR]U>mo{Ih4[}I`}pK7Vid3XLK\\SM8[PfH,*]""zY&WSVgL3$,""2]0ep%03>af[!t") (str.to.int var9)))
(assert (<= (str.to.int (str.++ var16 var14)) (str.indexof (str.replace (str.substr "v=@nt_q{GIFEI@`xA5VB'mf{Y\\@EXV-TK1Ujx\\7st8*]c{}=%&K?@$;!zLe>$0V!xuXEgbSxcC:F]B7|"",1kCMtezL`;5PDJ*M+?dH$Y.Jy0T79Lw8rj@Jp5p)D5J1/mO`""6-#-TEoA6Ja=7b:-.KQElf`k$1ELeF~[2fn$X@\\8}0zXm~aSA]GV);>RCdNfx`V1,Un{{TQIwRWRjGgef""wwFzr}q""GC5.g^=Q<6wl5qfMBVXA8,Gnf;Q7liq&gf@dUe5@k&6D!zJ.h}87+e.@CWZiK0F.6{6/^JBV*gW<.QJ$%34}dU~;$g/b0i,sWY.X" 169 var3) (str.++ var4 var14) (str.++ "'q*|VbBGg6cYS8'PE!,\\m0Eb+C/%m?@[&]l}N;a8eB<S6{;r<ni4YjdbP[<>f*_qpn;bgu*a@7:?X!cim.d$S[1c"".u7B" var4)) (str.replace var1 var9 var19) (str.indexof (str.++ var13 var19) (str.replace var14 var17 var4) (str.indexof var5 var11 var12)))))
(assert (= (str.substr var1 var6 var0) (str.replace (str.++ "x{Qis""'!E!A7d.jrIf\\z5^FXHWx]~""3Zhzri$taL?mE_ZGSt$m>NtNTv&-Yht{g.mYWF]b,IWfMx;%S%""Lds~<z2x2n~JCfAegeORa4jrE;+,!ym8YQ@H,\\4}q""k4k80?mb4A6b!,aUZI+EHqs<Sl'cxo|q" var7) (str.substr var4 var12 3) (str.substr "u){/&""y0)o/E<d^MY(*3O~ymikrNt^tsbBiRs02""/PM7'eC.Zw\\QzYrf&5QD.u?I1+m@B(N""*gw5|%JH=""U#:PuWBL=pLx%j0iQ@.02ZYzMFfKhvb?%nM'lz]B!vyk?h~>sCf~_Qh,$.HS6woFgn\\<V=0-.93s""?\\L(#ly>*H3&_HnZ-402=F%+Y`E1ByNv2vL*30G=ml?wF"";d-aqa2" var12 var10))))
(assert (> (str.indexof (str.at (str.replace var15 var17 var11) (str.indexof var1 var16 var18)) (str.replace var14 var20 var19) (str.indexof (str.++ var15 var11) (str.replace var4 var13 var9) (str.indexof var14 var1 var12))) (str.to.int var2)))
(assert (str.prefixof (str.++ var2 var17) (str.at var9 var6)))
(assert (> (str.indexof var7 var1 45) (str.indexof "PVW.'<^_r,;CY~ONBA\\^B69sc/O|x}NnkM|wT56*+`}mnHSmAVVaTU]3P2EU3M""+sN=rU.<75fB!#<P(IzTj~q*mCQ=!lv%!^jN$3DsQ*\\\\U=jpJ]GUdgXIpeun~RjYwEWjA!Zr'6`wgQ}foAtG@*2sbyCpy}5(dQ0cfv%`eq+jSU;Ci)1\\?v[qp*gd)6t>H[#$1/\\A@q\\(%Pe,:" var13 var3)))
(assert (> (str.indexof var9 var19 159) (str.len (str.++ "=4gnNbBZqntV.YY0Dntho*v`gLJPBn@.tbRwhTi_Zhb=/ZddxPKfPnPxd~fj0I^r/2t^HYO""umx@FKbR:pz;JN{]#WVkgyQnF+(!m&o/S=a,drV2ZmHVFB%6}F@V@@%/){m@n!1vmq-n&*I*z-*C#V""n-.~DHRrG,VqLqHMa3&ZX8o3>cYB-J4CjQU53!NH#i:Xp~Ux6""l##A|guk:1Le\\seJsmD0|w(i@-a(:4+@#-2Sn#DuQt~>\\2tECaFc(NAX28b#Yq0OF#11U3q#pZSqGTQ5#Mdja9n'llLIqXw<1nL>4O[(CXmirWIuMx{Xr'j*0$F32cU8]`H*>!""#XASX'q(Ui(lY/Q&9;?Fk0lz?LpCr[&)A2*{FpM>=RNjru5/al4v4?UP~kgm?!;U2`cd" var15))))
(assert (str.contains (str.at (str.++ var11 var20) (str.to.int var14)) (str.++ var7 var17)))
(check-sat)